p wcnf 192 740 5321
16 13 15 -19 0
16 13 17 -19 0
16 17 20 -14 0
16 14 -15 -18 0
16 15 -13 -20 0
16 18 -13 -17 0
16 18 -14 -19 0
16 19 -16 -17 0
16 20 -15 -16 0
16 13 16 20 -18 0
16 14 16 19 -18 0
16 15 16 18 -14 0
16 16 17 18 -19 0
16 13 14 16 19 20 0
16 14 15 17 18 19 0
16 13 16 -15 -20 0
16 15 17 -18 -20 0
16 16 17 -15 -19 0
16 18 19 -15 -20 0
16 14 -13 -16 -18 0
16 19 -13 -14 -15 0
16 -14 -15 -16 -17 0
16 16 20 -17 -18 -19 0
16 9 11 -23 0
16 9 21 -23 0
16 21 24 -10 0
16 10 -11 -22 0
16 11 -9 -24 0
16 22 -9 -21 0
16 22 -10 -23 0
16 23 -12 -21 0
16 24 -11 -12 0
16 9 12 24 -22 0
16 10 12 23 -22 0
16 11 12 22 -10 0
16 12 21 22 -23 0
16 9 10 12 23 24 0
16 10 11 21 22 23 0
16 9 12 -11 -24 0
16 11 21 -22 -24 0
16 12 21 -11 -23 0
16 22 23 -11 -24 0
16 10 -9 -12 -22 0
16 23 -9 -10 -11 0
16 -10 -11 -12 -21 0
16 12 24 -21 -22 -23 0
16 25 1 17 0
16 25 -1 -17 0
16 -25 1 -17 0
16 -25 -1 17 0
14 26 2 -18 0
14 26 -2 18 0
14 -26 2 18 0
14 -26 -2 -18 0
12 27 3 -19 0
12 27 -3 19 0
12 -27 3 19 0
12 -27 -3 -19 0
10 28 4 -20 0
10 28 -4 20 0
10 -28 4 20 0
10 -28 -4 -20 0
16 29 5 -21 0
16 29 -5 21 0
16 -29 5 21 0
16 -29 -5 -21 0
14 30 6 -22 0
14 30 -6 22 0
14 -30 6 22 0
14 -30 -6 -22 0
12 31 7 -23 0
12 31 -7 23 0
12 -31 7 23 0
12 -31 -7 -23 0
10 32 8 -24 0
10 32 -8 24 0
10 -32 8 24 0
10 -32 -8 -24 0
16 33 25 -9 0
16 33 -25 9 0
16 -33 25 9 0
16 -33 -25 -9 0
16 34 26 -10 0
16 34 -26 10 0
16 -34 26 10 0
16 -34 -26 -10 0
16 35 27 -11 0
16 35 -27 11 0
16 -35 27 11 0
16 -35 -27 -11 0
16 36 28 -12 0
16 36 -28 12 0
16 -36 28 12 0
16 -36 -28 -12 0
16 37 29 -13 0
16 37 -29 13 0
16 -37 29 13 0
16 -37 -29 -13 0
16 38 30 -14 0
16 38 -30 14 0
16 -38 30 14 0
16 -38 -30 -14 0
16 39 31 -15 0
16 39 -31 15 0
16 -39 31 15 0
16 -39 -31 -15 0
16 40 32 -16 0
16 40 -32 16 0
16 -40 32 16 0
16 -40 -32 -16 0
16 37 39 -43 0
16 37 41 -43 0
14 41 44 -38 0
14 38 -39 -42 0
16 39 -37 -44 0
16 42 -37 -41 0
14 42 -38 -43 0
10 43 -40 -41 0
12 44 -39 -40 0
16 37 40 44 -42 0
14 38 40 43 -42 0
14 39 40 42 -38 0
10 40 41 42 -43 0
16 37 38 40 43 44 0
14 38 39 41 42 43 0
16 37 40 -39 -44 0
12 39 41 -42 -44 0
12 40 41 -39 -43 0
12 42 43 -39 -44 0
16 38 -37 -40 -42 0
16 43 -37 -38 -39 0
14 -38 -39 -40 -41 0
10 40 44 -41 -42 -43 0
16 33 35 -47 0
16 33 45 -47 0
14 45 48 -34 0
14 34 -35 -46 0
16 35 -33 -48 0
16 46 -33 -45 0
14 46 -34 -47 0
10 47 -36 -45 0
12 48 -35 -36 0
16 33 36 48 -46 0
14 34 36 47 -46 0
14 35 36 46 -34 0
10 36 45 46 -47 0
16 33 34 36 47 48 0
14 34 35 45 46 47 0
16 33 36 -35 -48 0
12 35 45 -46 -48 0
12 36 45 -35 -47 0
12 46 47 -35 -48 0
16 34 -33 -36 -46 0
16 47 -33 -34 -35 0
14 -34 -35 -36 -45 0
10 36 48 -45 -46 -47 0
16 49 25 -41 0
16 49 -25 41 0
16 -49 25 41 0
16 -49 -25 -41 0
14 50 26 -42 0
14 50 -26 42 0
14 -50 26 42 0
14 -50 -26 -42 0
12 51 27 43 0
12 51 -27 -43 0
12 -51 27 -43 0
12 -51 -27 43 0
10 52 28 44 0
10 52 -28 -44 0
10 -52 28 -44 0
10 -52 -28 44 0
16 53 29 -45 0
16 53 -29 45 0
16 -53 29 45 0
16 -53 -29 -45 0
14 54 30 -46 0
14 54 -30 46 0
14 -54 30 46 0
14 -54 -30 -46 0
12 55 31 -47 0
12 55 -31 47 0
12 -55 31 47 0
12 -55 -31 -47 0
10 56 32 -48 0
10 56 -32 48 0
10 -56 32 48 0
10 -56 -32 -48 0
16 57 49 -33 0
16 57 -49 33 0
16 -57 49 33 0
16 -57 -49 -33 0
14 58 50 -34 0
14 58 -50 34 0
14 -58 50 34 0
14 -58 -50 -34 0
12 59 51 -35 0
12 59 -51 35 0
12 -59 51 35 0
12 -59 -51 -35 0
10 60 52 -36 0
10 60 -52 36 0
10 -60 52 36 0
10 -60 -52 -36 0
16 61 53 -37 0
16 61 -53 37 0
16 -61 53 37 0
16 -61 -53 -37 0
14 62 54 -38 0
14 62 -54 38 0
14 -62 54 38 0
14 -62 -54 -38 0
12 63 55 -39 0
12 63 -55 39 0
12 -63 55 39 0
12 -63 -55 -39 0
10 64 56 -40 0
10 64 -56 40 0
10 -64 56 40 0
10 -64 -56 -40 0
1 -65 0
1 66 0
1 67 0
1 -68 0
1 69 0
1 70 0
1 71 0
1 72 0
1 -73 0
1 74 0
1 75 0
1 -76 0
1 77 0
1 -78 0
1 79 0
1 80 0
1 -81 0
1 -82 0
1 -83 0
1 -84 0
1 -85 0
1 86 0
1 87 0
1 88 0
1 -89 0
1 -90 0
1 91 0
1 92 0
1 93 0
1 -94 0
1 -95 0
1 -96 0
16 97 65 -1 0
16 97 -65 1 0
16 -97 65 1 0
16 -97 -65 -1 0
14 98 66 -2 0
14 98 -66 2 0
14 -98 66 2 0
14 -98 -66 -2 0
12 99 67 -3 0
12 99 -67 3 0
12 -99 67 3 0
12 -99 -67 -3 0
10 100 68 -4 0
10 100 -68 4 0
10 -100 68 4 0
10 -100 -68 -4 0
16 101 69 -5 0
16 101 -69 5 0
16 -101 69 5 0
16 -101 -69 -5 0
14 102 70 -6 0
14 102 -70 6 0
14 -102 70 6 0
14 -102 -70 -6 0
12 103 71 -7 0
12 103 -71 7 0
12 -103 71 7 0
12 -103 -71 -7 0
10 104 72 -8 0
10 104 -72 8 0
10 -104 72 8 0
10 -104 -72 -8 0
16 105 73 -9 0
16 105 -73 9 0
16 -105 73 9 0
16 -105 -73 -9 0
16 106 74 -10 0
16 106 -74 10 0
16 -106 74 10 0
16 -106 -74 -10 0
16 107 75 -11 0
16 107 -75 11 0
16 -107 75 11 0
16 -107 -75 -11 0
16 108 76 -12 0
16 108 -76 12 0
16 -108 76 12 0
16 -108 -76 -12 0
16 109 77 -13 0
16 109 -77 13 0
16 -109 77 13 0
16 -109 -77 -13 0
16 110 78 -14 0
16 110 -78 14 0
16 -110 78 14 0
16 -110 -78 -14 0
16 111 79 -15 0
16 111 -79 15 0
16 -111 79 15 0
16 -111 -79 -15 0
16 112 80 -16 0
16 112 -80 16 0
16 -112 80 16 0
16 -112 -80 -16 0
1 97 99 -115 0
1 97 113 -115 0
1 113 116 -98 0
1 98 -99 -114 0
1 99 -97 -116 0
1 114 -97 -113 0
1 114 -98 -115 0
1 115 -100 -113 0
1 116 -99 -100 0
1 97 100 116 -114 0
1 98 100 115 -114 0
1 99 100 114 -98 0
1 100 113 114 -115 0
1 97 98 100 115 116 0
1 98 99 113 114 115 0
1 97 100 -99 -116 0
1 99 113 -114 -116 0
1 100 113 -99 -115 0
1 114 115 -99 -116 0
1 98 -97 -100 -114 0
1 115 -97 -98 -99 0
1 -98 -99 -100 -113 0
1 100 116 -113 -114 -115 0
1 101 103 -119 0
1 101 117 -119 0
1 117 120 -102 0
1 102 -103 -118 0
1 103 -101 -120 0
1 118 -101 -117 0
1 118 -102 -119 0
1 119 -104 -117 0
1 120 -103 -104 0
1 101 104 120 -118 0
1 102 104 119 -118 0
1 103 104 118 -102 0
1 104 117 118 -119 0
1 101 102 104 119 120 0
1 102 103 117 118 119 0
1 101 104 -103 -120 0
1 103 117 -118 -120 0
1 104 117 -103 -119 0
1 118 119 -103 -120 0
1 102 -101 -104 -118 0
1 119 -101 -102 -103 0
1 -102 -103 -104 -117 0
1 104 120 -117 -118 -119 0
1 105 107 -123 0
1 105 121 -123 0
1 121 124 -106 0
1 106 -107 -122 0
1 107 -105 -124 0
1 122 -105 -121 0
1 122 -106 -123 0
1 123 -108 -121 0
1 124 -107 -108 0
1 105 108 124 -122 0
1 106 108 123 -122 0
1 107 108 122 -106 0
1 108 121 122 -123 0
1 105 106 108 123 124 0
1 106 107 121 122 123 0
1 105 108 -107 -124 0
1 107 121 -122 -124 0
1 108 121 -107 -123 0
1 122 123 -107 -124 0
1 106 -105 -108 -122 0
1 123 -105 -106 -107 0
1 -106 -107 -108 -121 0
1 108 124 -121 -122 -123 0
1 109 111 -127 0
1 109 125 -127 0
1 125 128 -110 0
1 110 -111 -126 0
1 111 -109 -128 0
1 126 -109 -125 0
1 126 -110 -127 0
1 127 -112 -125 0
1 128 -111 -112 0
1 109 112 128 -126 0
1 110 112 127 -126 0
1 111 112 126 -110 0
1 112 125 126 -127 0
1 109 110 112 127 128 0
1 110 111 125 126 127 0
1 109 112 -111 -128 0
1 111 125 -126 -128 0
1 112 125 -111 -127 0
1 126 127 -111 -128 0
1 110 -109 -112 -126 0
1 127 -109 -110 -111 0
1 -110 -111 -112 -125 0
1 112 128 -125 -126 -127 0
1 145 -115 0
1 -145 115 0
1 146 116 -113 0
1 146 -116 113 0
1 -146 116 113 0
1 -146 -116 -113 0
1 147 113 -114 0
1 147 -113 114 0
1 -147 113 114 0
1 -147 -113 -114 0
1 148 -114 0
1 -148 114 0
1 149 -127 0
1 -149 127 0
1 150 128 -125 0
1 150 -128 125 0
1 -150 128 125 0
1 -150 -128 -125 0
1 151 125 -126 0
1 151 -125 126 0
1 -151 125 126 0
1 -151 -125 -126 0
1 152 -126 0
1 -152 126 0
1 129 113 -149 0
1 129 -113 149 0
1 -129 113 149 0
1 -129 -113 -149 0
1 133 145 -125 0
1 133 -145 125 0
1 -133 145 125 0
1 -133 -145 -125 0
1 130 114 -150 0
1 130 -114 150 0
1 -130 114 150 0
1 -130 -114 -150 0
1 134 146 -126 0
1 134 -146 126 0
1 -134 146 126 0
1 -134 -146 -126 0
1 131 115 -151 0
1 131 -115 151 0
1 -131 115 151 0
1 -131 -115 -151 0
1 135 147 -127 0
1 135 -147 127 0
1 -135 147 127 0
1 -135 -147 -127 0
1 132 116 -152 0
1 132 -116 152 0
1 -132 116 152 0
1 -132 -116 -152 0
1 136 148 -128 0
1 136 -148 128 0
1 -136 148 128 0
1 -136 -148 -128 0
1 153 -123 0
1 -153 123 0
1 154 124 -121 0
1 154 -124 121 0
1 -154 124 121 0
1 -154 -124 -121 0
1 155 121 -122 0
1 155 -121 122 0
1 -155 121 122 0
1 -155 -121 -122 0
1 156 -122 0
1 -156 122 0
1 157 -119 0
1 -157 119 0
1 158 120 -117 0
1 158 -120 117 0
1 -158 120 117 0
1 -158 -120 -117 0
1 159 117 -118 0
1 159 -117 118 0
1 -159 117 118 0
1 -159 -117 -118 0
1 160 -118 0
1 -160 118 0
1 137 121 -157 0
1 137 -121 157 0
1 -137 121 157 0
1 -137 -121 -157 0
1 141 153 -117 0
1 141 -153 117 0
1 -141 153 117 0
1 -141 -153 -117 0
1 138 122 -158 0
1 138 -122 158 0
1 -138 122 158 0
1 -138 -122 -158 0
1 142 154 -118 0
1 142 -154 118 0
1 -142 154 118 0
1 -142 -154 -118 0
1 139 123 -159 0
1 139 -123 159 0
1 -139 123 159 0
1 -139 -123 -159 0
1 143 155 -119 0
1 143 -155 119 0
1 -143 155 119 0
1 -143 -155 -119 0
1 140 124 -160 0
1 140 -124 160 0
1 -140 124 160 0
1 -140 -124 -160 0
1 144 156 -120 0
1 144 -156 120 0
1 -144 156 120 0
1 -144 -156 -120 0
16 161 129 -25 0
16 161 -129 25 0
16 -161 129 25 0
16 -161 -129 -25 0
14 162 130 -26 0
14 162 -130 26 0
14 -162 130 26 0
14 -162 -130 -26 0
12 163 131 -27 0
12 163 -131 27 0
12 -163 131 27 0
12 -163 -131 -27 0
10 164 132 -28 0
10 164 -132 28 0
10 -164 132 28 0
10 -164 -132 -28 0
16 165 133 -29 0
16 165 -133 29 0
16 -165 133 29 0
16 -165 -133 -29 0
14 166 134 -30 0
14 166 -134 30 0
14 -166 134 30 0
14 -166 -134 -30 0
12 167 135 -31 0
12 167 -135 31 0
12 -167 135 31 0
12 -167 -135 -31 0
10 168 136 -32 0
10 168 -136 32 0
10 -168 136 32 0
10 -168 -136 -32 0
16 169 137 -33 0
16 169 -137 33 0
16 -169 137 33 0
16 -169 -137 -33 0
14 170 138 -34 0
14 170 -138 34 0
14 -170 138 34 0
14 -170 -138 -34 0
12 171 139 -35 0
12 171 -139 35 0
12 -171 139 35 0
12 -171 -139 -35 0
10 172 140 -36 0
10 172 -140 36 0
10 -172 140 36 0
10 -172 -140 -36 0
16 173 141 -37 0
16 173 -141 37 0
16 -173 141 37 0
16 -173 -141 -37 0
14 174 142 -38 0
14 174 -142 38 0
14 -174 142 38 0
14 -174 -142 -38 0
12 175 143 -39 0
12 175 -143 39 0
12 -175 143 39 0
12 -175 -143 -39 0
10 176 144 -40 0
10 176 -144 40 0
10 -176 144 40 0
10 -176 -144 -40 0
1 161 163 -179 0
1 161 177 -179 0
1 177 180 -162 0
1 162 -163 -178 0
1 163 -161 -180 0
1 178 -161 -177 0
1 178 -162 -179 0
1 179 -164 -177 0
1 180 -163 -164 0
1 161 164 180 -178 0
1 162 164 179 -178 0
1 163 164 178 -162 0
1 164 177 178 -179 0
1 161 162 164 179 180 0
1 162 163 177 178 179 0
1 161 164 -163 -180 0
1 163 177 -178 -180 0
1 164 177 -163 -179 0
1 178 179 -163 -180 0
1 162 -161 -164 -178 0
1 179 -161 -162 -163 0
1 -162 -163 -164 -177 0
1 164 180 -177 -178 -179 0
1 165 167 -183 0
1 165 181 -183 0
1 181 184 -166 0
1 166 -167 -182 0
1 167 -165 -184 0
1 182 -165 -181 0
1 182 -166 -183 0
1 183 -168 -181 0
1 184 -167 -168 0
1 165 168 184 -182 0
1 166 168 183 -182 0
1 167 168 182 -166 0
1 168 181 182 -183 0
1 165 166 168 183 184 0
1 166 167 181 182 183 0
1 165 168 -167 -184 0
1 167 181 -182 -184 0
1 168 181 -167 -183 0
1 182 183 -167 -184 0
1 166 -165 -168 -182 0
1 183 -165 -166 -167 0
1 -166 -167 -168 -181 0
1 168 184 -181 -182 -183 0
1 169 171 -187 0
1 169 185 -187 0
1 185 188 -170 0
1 170 -171 -186 0
1 171 -169 -188 0
1 186 -169 -185 0
1 186 -170 -187 0
1 187 -172 -185 0
1 188 -171 -172 0
1 169 172 188 -186 0
1 170 172 187 -186 0
1 171 172 186 -170 0
1 172 185 186 -187 0
1 169 170 172 187 188 0
1 170 171 185 186 187 0
1 169 172 -171 -188 0
1 171 185 -186 -188 0
1 172 185 -171 -187 0
1 186 187 -171 -188 0
1 170 -169 -172 -186 0
1 187 -169 -170 -171 0
1 -170 -171 -172 -185 0
1 172 188 -185 -186 -187 0
1 173 175 -191 0
1 173 189 -191 0
1 189 192 -174 0
1 174 -175 -190 0
1 175 -173 -192 0
1 190 -173 -189 0
1 190 -174 -191 0
1 191 -176 -189 0
1 192 -175 -176 0
1 173 176 192 -190 0
1 174 176 191 -190 0
1 175 176 190 -174 0
1 176 189 190 -191 0
1 173 174 176 191 192 0
1 174 175 189 190 191 0
1 173 176 -175 -192 0
1 175 189 -190 -192 0
1 176 189 -175 -191 0
1 190 191 -175 -192 0
1 174 -173 -176 -190 0
1 191 -173 -174 -175 0
1 -174 -175 -176 -189 0
1 176 192 -189 -190 -191 0
2 81 177 -49 0
2 81 -177 49 0
2 -81 177 49 0
2 -81 -177 -49 0
2 82 178 -50 0
2 82 -178 50 0
2 -82 178 50 0
2 -82 -178 -50 0
2 83 179 -51 0
2 83 -179 51 0
2 -83 179 51 0
2 -83 -179 -51 0
2 84 180 -52 0
2 84 -180 52 0
2 -84 180 52 0
2 -84 -180 -52 0
2 85 189 -53 0
2 85 -189 53 0
2 -85 189 53 0
2 -85 -189 -53 0
2 86 190 -54 0
2 86 -190 54 0
2 -86 190 54 0
2 -86 -190 -54 0
2 87 191 -55 0
2 87 -191 55 0
2 -87 191 55 0
2 -87 -191 -55 0
2 88 192 -56 0
2 88 -192 56 0
2 -88 192 56 0
2 -88 -192 -56 0
1 89 185 -57 0
1 89 -185 57 0
1 -89 185 57 0
1 -89 -185 -57 0
1 90 186 -58 0
1 90 -186 58 0
1 -90 186 58 0
1 -90 -186 -58 0
1 91 187 -59 0
1 91 -187 59 0
1 -91 187 59 0
1 -91 -187 -59 0
1 92 188 -60 0
1 92 -188 60 0
1 -92 188 60 0
1 -92 -188 -60 0
1 93 181 -61 0
1 93 -181 61 0
1 -93 181 61 0
1 -93 -181 -61 0
1 94 182 -62 0
1 94 -182 62 0
1 -94 182 62 0
1 -94 -182 -62 0
1 95 183 -63 0
1 95 -183 63 0
1 -95 183 63 0
1 -95 -183 -63 0
1 96 184 -64 0
1 96 -184 64 0
1 -96 184 64 0
1 -96 -184 -64 0
